
  32    4
  10   10   10   10

   0   0   0   0   0   3 2 3 5 
   4   0   1   1   1   2 8 4 
   4   1   2   0   4   2 8 6 
   3   0   4   5   3   1 6 
   2   2   3   4   0   1 6 
   1   0   4   3   4   2 13 7 
   5   0   8   4   7   1 9 
   3   4   0   3   2   2 13 12 
  10   6   6   2   0   1 10 
  10   9   0   5   4   1 11 
   6   3   0   1   4   2 15 12 
   1   3   4   6   0   3 20 19 14 
   6   5   3   5   0   3 19 17 15 
  10   3   0   4   6   1 16 
   7   1   0   3   2   3 22 21 20 
  10   3   5   0   5   2 22 18 
   3   0   2   4   2   1 18 
   7   5   4   2   0   3 27 24 21 
   1   4   5   0   6   2 27 21 
   3   6   5   8   0   2 27 24 
  10   3   5   4   0   1 23 
   4   2   4   0   5   2 27 26 
   8   3   0   3   5   1 25 
   1   7   0   5   4   1 25 
   4   5   0   3   1   1 26 
   6   3   0   7   1   2 30 28 
   4   4   0   3   5   2 30 28 
  10   6   3   5   0   1 29 
   1   5   0   3   5   1 31 
   8   3   0   5   5   1 31 
   9   4   0   6   7   1 32
   0   0   0   0   0   0 
